120
150
51
57
56
46
48
56
49
46
58
47
56
56
45
49
53
56
48
53
57
59
52
57
52
45
52
46
55
47
41
49
47
41
52
48
49
42
49
49
46
49
52
41
60
60
50
51
57
57
49
53
42
47
45
59
58
45
51
40
52
47
56
53
55
46
52
47
41
47
59
56
45
46
49
55
43
56
53
60
41
46
50
45
59
46
57
41
56
52
53
58
48
47
56
47
57
45
55
40
57
44
40
57
49
44
48
57
59
47
56
41
48
47
60
42
53
46
51
56
43
51
